(declare-const c_0 Real)
(declare-const c_1 Real)
(declare-const c_2 Real)
(declare-const c_3 Real)
(declare-const c_4 Real)
(declare-const c_5 Real)
(declare-const c_6 Real)
(declare-const c_7 Real)
(declare-const c_8 Real)
(declare-const c_9 Real)
(declare-const s_0 Real)
(declare-const s_1 Real)
(declare-const s_2 Real)
(declare-const s_3 Real)
(declare-const s_4 Real)
(declare-const s_5 Real)
(declare-const s_6 Real)
(declare-const s_7 Real)
(declare-const s_8 Real)
(declare-const s_9 Real)
(assert (forall ((x Real) (i Real) (y Real) (z Real) ) (=> (and (>= (+ (* 1024 1) (* 1 x ) ) 0) (>= (+ (* 1023 1) (* (- 1) x ) ) 0) (>= (+ (* 1024 1) (* 1 i ) ) 0) (>= (+ (* 1023 1) (* (- 1) i ) ) 0) (>= (+ (* 1024 1) (* 1 y ) ) 0) (>= (+ (* 1023 1) (* (- 1) y ) ) 0) (>= (+ (* 1024 1) (* 1 z ) ) 0) (>= (+ (* 1023 1) (* (- 1) z ) ) 0) ) (>= (+ (* 1 i s_1 ) (* 1 s_0 ) (* 1 s_2 x ) (* 1 s_3 y ) (* 1 s_4 z ) ) 0) )))
(assert (forall ((x Real) (i Real) (y Real) (z Real) ) (=> (and (>= (+ (* 1024 1) (* 1 x ) ) 0) (>= (+ (* 1023 1) (* (- 1) x ) ) 0) (>= (+ (* 1024 1) (* 1 i ) ) 0) (>= (+ (* 1023 1) (* (- 1) i ) ) 0) (>= (+ (* 1024 1) (* 1 y ) ) 0) (>= (+ (* 1023 1) (* (- 1) y ) ) 0) (>= (+ (* 1024 1) (* 1 z ) ) 0) (>= (+ (* 1023 1) (* (- 1) z ) ) 0) ) (>= (+ (* 1 c_0 ) (* 1 c_1 i ) (* 1 c_2 x ) (* 1 c_3 y ) (* 1 c_4 z ) ) 0) )))
(assert (forall ((x Real) (i Real) (y Real) (z Real) ) (=> (and (>= (+ (* (- 1) 1) (* (- 1) x ) (* 1 z ) ) 0) (>= (+ (* (- 1) 1) (* (- 1) x ) (* 1 y ) ) 0) (>= (+ (* 1023 1) (* (- 1) z ) ) 0) (>= (+ (* 1023 1) (* (- 1) y ) ) 0) (>= (+ (* 1023 1) (* (- 1) x ) ) 0) (>= (+ (* 1024 1) (* 1 x ) ) 0) (>= (+ (* 1024 1) (* 1 i ) ) 0) (>= (+ (* 1024 1) (* 1 z ) ) 0) (>= (+ (* 1024 1) (* 1 y ) ) 0) (>= (+ (* 1 i s_1 ) (* 1 s_0 ) (* 1 s_2 x ) (* 1 s_3 y ) (* 1 s_4 z ) ) 0) ) (>= (+ (* 1 i s_1 ) (* 1 s_0 ) (* 1 s_1 ) (* 1 s_2 ) (* 1 s_2 x ) (* 1 s_3 y ) (* 1 s_4 z ) ) 0) )))
(assert (forall ((x Real) (i Real) (y Real) (z Real) ) (=> (and (>= (+ (* (- 1) 1) (* (- 1) x ) (* 1 z ) ) 0) (>= (+ (* (- 1) 1) (* (- 1) x ) (* 1 y ) ) 0) (>= (+ (* 1023 1) (* (- 1) z ) ) 0) (>= (+ (* 1023 1) (* (- 1) y ) ) 0) (>= (+ (* 1023 1) (* (- 1) x ) ) 0) (>= (+ (* 1024 1) (* 1 x ) ) 0) (>= (+ (* 1024 1) (* 1 i ) ) 0) (>= (+ (* 1024 1) (* 1 z ) ) 0) (>= (+ (* 1024 1) (* 1 y ) ) 0) (>= (+ (* 1 i s_1 ) (* 1 s_0 ) (* 1 s_2 x ) (* 1 s_3 y ) (* 1 s_4 z ) ) 0) ) (>= (+ (* 1 c_0 ) (* 1 c_1 ) (* 1 c_1 i ) (* 1 c_2 ) (* 1 c_2 x ) (* 1 c_3 y ) (* 1 c_4 z ) ) 0) )))
(assert (forall ((x Real) (i Real) (y Real) (z Real) ) (=> (and (>= (+ (* (- 1) 1) (* (- 1) x ) (* 1 z ) ) 0) (>= (+ (* (- 1) 1) (* (- 1) x ) (* 1 y ) ) 0) (>= (+ (* 1023 1) (* (- 1) z ) ) 0) (>= (+ (* 1023 1) (* (- 1) y ) ) 0) (>= (+ (* 1023 1) (* (- 1) x ) ) 0) (>= (+ (* 1024 1) (* 1 x ) ) 0) (>= (+ (* 1024 1) (* 1 i ) ) 0) (>= (+ (* 1024 1) (* 1 z ) ) 0) (>= (+ (* 1024 1) (* 1 y ) ) 0) (>= (+ (* 1 i s_1 ) (* 1 s_0 ) (* 1 s_2 x ) (* 1 s_3 y ) (* 1 s_4 z ) ) 0) ) (>= (+ (* (- 1) 1) (* (- 1) c_1 ) (* (- 1) c_2 ) ) 0) )))
(assert (forall ((x Real) (i Real) (y Real) (z Real) ) (=> (and (>= (+ (* 1 x ) (* (- 1) z ) ) 0) (>= (+ (* (- 1) 1) (* (- 1) x ) (* 1 y ) ) 0) (>= (+ (* 1023 1) (* (- 1) z ) ) 0) (>= (+ (* 1023 1) (* (- 1) y ) ) 0) (>= (+ (* 1023 1) (* (- 1) x ) ) 0) (>= (+ (* 1024 1) (* 1 x ) ) 0) (>= (+ (* 1024 1) (* 1 i ) ) 0) (>= (+ (* 1024 1) (* 1 z ) ) 0) (>= (+ (* 1024 1) (* 1 y ) ) 0) (>= (+ (* 1 i s_1 ) (* 1 s_0 ) (* 1 s_2 x ) (* 1 s_3 y ) (* 1 s_4 z ) ) 0) ) (>= (+ (* 1 i s_1 ) (* 1 s_0 ) (* 1 s_1 ) (* 1 s_2 x ) (* 1 s_3 y ) (* 1 s_4 ) (* 1 s_4 z ) ) 0) )))
(assert (forall ((x Real) (i Real) (y Real) (z Real) ) (=> (and (>= (+ (* 1 x ) (* (- 1) z ) ) 0) (>= (+ (* (- 1) 1) (* (- 1) x ) (* 1 y ) ) 0) (>= (+ (* 1023 1) (* (- 1) z ) ) 0) (>= (+ (* 1023 1) (* (- 1) y ) ) 0) (>= (+ (* 1023 1) (* (- 1) x ) ) 0) (>= (+ (* 1024 1) (* 1 x ) ) 0) (>= (+ (* 1024 1) (* 1 i ) ) 0) (>= (+ (* 1024 1) (* 1 z ) ) 0) (>= (+ (* 1024 1) (* 1 y ) ) 0) (>= (+ (* 1 i s_1 ) (* 1 s_0 ) (* 1 s_2 x ) (* 1 s_3 y ) (* 1 s_4 z ) ) 0) ) (>= (+ (* 1 c_0 ) (* 1 c_1 ) (* 1 c_1 i ) (* 1 c_2 x ) (* 1 c_3 y ) (* 1 c_4 ) (* 1 c_4 z ) ) 0) )))
(assert (forall ((x Real) (i Real) (y Real) (z Real) ) (=> (and (>= (+ (* 1 x ) (* (- 1) z ) ) 0) (>= (+ (* (- 1) 1) (* (- 1) x ) (* 1 y ) ) 0) (>= (+ (* 1023 1) (* (- 1) z ) ) 0) (>= (+ (* 1023 1) (* (- 1) y ) ) 0) (>= (+ (* 1023 1) (* (- 1) x ) ) 0) (>= (+ (* 1024 1) (* 1 x ) ) 0) (>= (+ (* 1024 1) (* 1 i ) ) 0) (>= (+ (* 1024 1) (* 1 z ) ) 0) (>= (+ (* 1024 1) (* 1 y ) ) 0) (>= (+ (* 1 i s_1 ) (* 1 s_0 ) (* 1 s_2 x ) (* 1 s_3 y ) (* 1 s_4 z ) ) 0) ) (>= (+ (* (- 1) 1) (* (- 1) c_1 ) (* (- 1) c_4 ) ) 0) )))
(assert (forall ((x Real) (i Real) (y Real) (z Real) ) (=> (and (>= (+ (* 1 x ) (* (- 1) y ) ) 0) (>= (+ (* 1023 1) (* (- 1) z ) ) 0) (>= (+ (* 1023 1) (* (- 1) y ) ) 0) (>= (+ (* 1023 1) (* (- 1) x ) ) 0) (>= (+ (* 1024 1) (* 1 x ) ) 0) (>= (+ (* 1024 1) (* 1 i ) ) 0) (>= (+ (* 1024 1) (* 1 z ) ) 0) (>= (+ (* 1024 1) (* 1 y ) ) 0) (>= (+ (* 1 i s_1 ) (* 1 s_0 ) (* 1 s_2 x ) (* 1 s_3 y ) (* 1 s_4 z ) ) 0) ) (>= (+ (* 1 i s_6 ) (* 1 s_5 ) (* 1 s_7 x ) (* 1 s_8 y ) (* 1 s_9 z ) ) 0) )))
(assert (forall ((x Real) (i Real) (y Real) (z Real) ) (=> (and (>= (+ (* 1 x ) (* (- 1) y ) ) 0) (>= (+ (* 1023 1) (* (- 1) z ) ) 0) (>= (+ (* 1023 1) (* (- 1) y ) ) 0) (>= (+ (* 1023 1) (* (- 1) x ) ) 0) (>= (+ (* 1024 1) (* 1 x ) ) 0) (>= (+ (* 1024 1) (* 1 i ) ) 0) (>= (+ (* 1024 1) (* 1 z ) ) 0) (>= (+ (* 1024 1) (* 1 y ) ) 0) (>= (+ (* 1 i s_1 ) (* 1 s_0 ) (* 1 s_2 x ) (* 1 s_3 y ) (* 1 s_4 z ) ) 0) ) (>= (+ (* 1 c_5 ) (* 1 c_6 i ) (* 1 c_7 x ) (* 1 c_8 y ) (* 1 c_9 z ) ) 0) )))

(check-sat)
(get-model)
